35
75
52	1
51	2
50	3
49	7
48	3
47	3
46	4
45	7
44	3
43	4
42	3
41	5
38	2
37	2
36	3
35	2
34	3
33	1
32	3
31	2
30	1
29	4
28	2
27	2
26	1
25	2
24	6
22	3
21	4
20	1
19	1
18	2
17	3
16	1
15	4
